p cnf 104 354
3 2 0
3 2 0
-2 -3 0
-3 -4 -5 0
3 4 -5 0
-3 4 5 0
3 -4 5 0
-6 -1 0
-6 -5 0
1 5 6 0
9 -7 0
9 -8 0
7 8 -9 0
9 -10 -11 0
-9 10 -11 0
9 10 11 0
-9 -10 11 0
12 -10 0
12 -2 0
10 2 -12 0
-11 -12 -13 0
11 12 -13 0
-11 12 13 0
11 -12 13 0
17 16 0
17 -14 0
-16 14 -17 0
15 17 -18 0
-15 -17 -18 0
15 -17 18 0
-15 17 18 0
19 14 0
19 18 0
-14 -18 -19 0
20 -19 0
20 12 0
19 -12 -20 0
-23 -21 0
-23 22 0
21 -22 23 0
-25 -7 0
-25 24 0
7 -24 25 0
-24 25 -26 0
24 -25 -26 0
-24 -25 26 0
24 25 26 0
-27 23 0
-27 26 0
-23 -26 27 0
-28 -20 0
-28 -27 0
20 27 28 0
-29 -13 0
-29 -28 0
13 28 29 0
-6 29 -30 0
6 -29 -30 0
-6 -29 30 0
6 29 30 0
-31 25 0
-31 -9 0
-25 9 31 0
32 -22 0
32 25 0
22 -25 -32 0
33 31 0
33 32 0
-31 -32 -33 0
-30 33 -34 0
30 -33 -34 0
-30 -33 34 0
30 33 34 0
35 10 0
35 2 0
-10 -2 -35 0
-36 -8 0
-36 -14 0
8 14 36 0
37 1 0
37 -36 0
-1 36 -37 0
38 35 0
38 -37 0
-35 37 -38 0
39 -36 0
39 -17 0
36 17 -39 0
-40 -15 0
-40 39 0
15 -39 40 0
12 -2 -41 0
-12 2 -41 0
12 2 41 0
-12 -2 41 0
-42 -40 0
-42 41 0
40 -41 42 0
43 -16 0
43 7 0
16 -7 -43 0
45 23 0
45 -44 0
-23 44 -45 0
-46 43 0
-46 -45 0
-43 45 46 0
-47 -42 0
-47 -46 0
42 46 47 0
38 47 -48 0
-38 -47 -48 0
38 -47 48 0
-38 47 48 0
9 -13 -49 0
-9 13 -49 0
9 13 49 0
-9 -13 49 0
50 4 0
50 5 0
-4 -5 -50 0
51 3 0
51 -50 0
-3 50 -51 0
-52 49 0
-52 51 0
-49 -51 52 0
-53 4 0
-53 44 0
-4 -44 53 0
-54 -45 0
-54 53 0
45 -53 54 0
7 -44 -55 0
-7 44 -55 0
7 44 55 0
-7 -44 55 0
-56 -55 0
-56 24 0
55 -24 56 0
-16 -56 -57 0
16 56 -57 0
-16 56 57 0
16 -56 57 0
58 54 0
58 57 0
-54 -57 -58 0
59 28 0
59 -58 0
-28 58 -59 0
60 1 0
60 26 0
-1 -26 -60 0
-61 43 0
-61 -60 0
-43 60 61 0
62 -15 0
62 36 0
15 -36 -62 0
-25 1 -63 0
25 -1 -63 0
-25 -1 63 0
25 1 63 0
-64 -62 0
-64 -63 0
62 63 64 0
-65 7 0
-65 22 0
-7 -22 65 0
13 -3 -66 0
-13 3 -66 0
13 3 66 0
-13 -3 66 0
67 -65 0
67 66 0
65 -66 -67 0
-68 -64 0
-68 -67 0
64 67 68 0
-18 -62 -69 0
18 62 -69 0
-18 62 69 0
18 -62 69 0
71 -17 0
71 -54 0
17 54 -71 0
-72 70 0
-72 -71 0
-70 71 72 0
69 -72 -73 0
-69 72 -73 0
69 72 73 0
-69 -72 73 0
68 73 -74 0
-68 -73 -74 0
68 -73 74 0
-68 73 74 0
-61 74 -75 0
61 -74 -75 0
-61 -74 75 0
61 74 75 0
-76 59 0
-76 -75 0
-59 75 76 0
52 76 -77 0
-52 -76 -77 0
52 -76 77 0
-52 76 77 0
78 1 0
78 -8 0
-1 8 -78 0
-79 -1 0
-79 -54 0
1 54 79 0
-80 78 0
-80 -79 0
-78 79 80 0
81 -77 0
81 80 0
77 -80 -81 0
82 48 0
82 -81 0
-48 81 -82 0
-83 39 0
-83 -4 0
-39 4 83 0
-84 83 0
-84 -53 0
-83 53 84 0
17 -84 -85 0
-17 84 -85 0
17 84 85 0
-17 -84 85 0
-86 13 0
-86 22 0
-13 -22 86 0
87 -50 0
87 -84 0
50 84 -87 0
-88 -27 0
-88 16 0
27 -16 88 0
-87 -88 -89 0
87 88 -89 0
-87 88 89 0
87 -88 89 0
90 19 0
90 2 0
-19 -2 -90 0
91 -14 0
91 -90 0
14 90 -91 0
92 89 0
92 91 0
-89 -91 -92 0
7 4 -93 0
-7 -4 -93 0
7 -4 93 0
-7 4 93 0
94 92 0
94 -93 0
-92 93 -94 0
-95 -45 0
-95 23 0
45 -23 95 0
96 -95 0
96 56 0
95 -56 -96 0
97 -65 0
97 -19 0
65 19 -97 0
98 96 0
98 97 0
-96 -97 -98 0
99 13 0
99 -98 0
-13 98 -99 0
-94 99 -100 0
94 -99 -100 0
-94 -99 100 0
94 99 100 0
86 100 -101 0
-86 -100 -101 0
86 -100 101 0
-86 100 101 0
102 -85 0
102 101 0
85 -101 -102 0
103 -82 0
103 102 0
82 -102 -103 0
104 34 0
104 103 0
-34 -103 -104 0
-40 29 0
79 63 15 -78 -62 0
-82 23 7 10 0
-100 19 -21 41 12 0
-83 -6 -5 59 -98 0
-93 -54 0
-26 65 0
-75 10 82 -47 0
52 35 0
-89 18 -90 -57 -13 8 0
72 -81 0
50 -57 0
-79 -76 48 88 0
14 94 17 0
84 48 -52 -81 0
6 -15 101 0
-66 47 -8 -21 7 81 0
-44 70 0
-101 18 84 -61 -48 -16 0
-64 -102 48 26 27 -79 0
-13 52 100 33 60 0
39 46 0
-13 64 23 4 0
43 16 78 0
-1 -2 -61 -20 80 -28 0
61 66 -86 -60 0
-71 84 -93 50 0
43 46 48 29 0
-89 74 44 -42 31 -72 0
6 -46 -24 25 10 -85 0
8 35 -65 -81 0
-2 53 -104 27 -73 0
-43 -46 -47 0
84 28 -38 5 -46 -79 0
54 -46 -92 21 0
78 12 -62 37 101 100 0
9 -40 0
-39 -96 0
-82 12 -70 93 46 0
68 29 87 -27 23 62 0
-15 2 84 0
-83 32 -14 24 0
-57 15 -59 36 94 101 0
16 -82 78 -88 2 24 0
-91 53 -55 68 0
14 51 -43 0
71 87 0
15 -39 -100 -73 79 0
-7 -96 -48 8 61 -50 0
71 14 0
11 -47 -32 0
-95 27 -2 0
-68 -21 -67 26 0
-91 72 -44 -95 0
-60 59 -73 -1 40 0
-98 -14 102 85 0
77 57 0
93 -27 0
49 8 -35 -9 0
104 0
